Route #1: 1 39 32 36 15 2 45 1
Route #2: 1 24 10 8 33 14 21 11 4 42 43 3 1
Route #3: 1 30 27 28 35 12 41 31 20 1
Route #4: 1 16 26 13 40 37 5 23 1
Route #5: 1 38 25 7 19 44 1
Route #6: 1 29 18 6 22 34 9 17 1
cost 1123.2443124886554